171
0 133 103 31 1 36 22 4 3 158 
141 148 65 49 81 135 126 87 122 44 
33 99 12 162 84 102 19 93 150 142 
25 80 106 144 163 6 149 169 41 42 
153 170 146 104 115 105 72 113 90 167 
15 79 139 108 53 134 119 89 161 62 
78 98 39 46 147 137 38 54 138 40 
96 136 91 13 68 5 2 58 116 74 
55 63 57 50 114 86 100 26 7 127 
47 85 118 70 140 128 67 16 132 8 
159 129 154 29 52 69 94 143 23 18 
130 77 95 71 121 17 34 92 82 124 
152 88 32 75 9 10 120 14 43 21 
27 76 123 131 11 48 59 109 37 112 
73 64 45 28 145 101 165 30 56 110 
117 160 83 24 20 97 61 107 164 155 
157 60 51 111 35 166 125 156 168 151 
66 
